100
32
13
5
1
4
19
14
19
4
9
8
19
26
26
16
12
2
2
1
3
17
8
9
9
3
1
1
2
16
1
1
2
1
3
2
3
2
3
17
2
4
1
9
17
1
3
2
1
17
5
2
1
2
1
17
1
3
3
1
4
1
3
20
1
3
1
3
2
3
6
2
18
17
1
1
3
18
1
2
2
3
3
1
1
1
1
2
3
4
1
1
8
3
1
1
1
1
23
2
1
5